PROBLEM NAME: eil51_n18
KNAPSACK DATA TYPE: multiple strongly correlated
DIMENSION: 18
NUMBER OF ITEMS: 17
CAPACITY OF KNAPSACK: 7036
MIN SPEED: 0.1
MAX SPEED: 1
RENTING RATIO: 11.00
EDGE_WEIGHT_TYPE: CEIL_2D
NODE_COORD_SECTION	(INDEX, X, Y):
1	37	52
2	49	49
3	20	26
4	21	47
5	17	63
6	31	62
7	51	21
8	42	41
9	31	32
10	27	23
11	17	33
12	7	38
13	58	27
14	38	46
15	32	22
16	5	6
17	25	55
18	48	28
ITEMS SECTION	(INDEX, PROFIT, WEIGHT, ASSIGNED NODE NUMBER):
1	1091	891	14
2	1067	867	8
3	1008	808	2
4	927	727	13
5	910	710	7
6	772	572	18
7	718	518	9
8	634	434	15
9	631	431	10
10	583	383	16
11	543	343	3
12	481	281	11
13	438	138	12
14	418	218	4
15	412	212	17
16	316	116	5
17	291	91	6
